(set-info :Origin "This instance was generated by: BanditFuzz-- an RL fuzzer for SMT solvers" )
(set-info :Author "Joe Scott, Fed Mora, Vijay Ganesh" )
(set-info :Contact "Joe Scott, joseph.scott@uwaterloo.ca")
; solvers/z3.sh
; 	time => 0.19713592529296875
; 	answer => err
; solvers/bitwuzla.sh
; 	time => 0.12810802459716797
; 	answer => err
; solvers/cvc4.sh
; 	time => 0.2250072956085205
; 	answer => err
(set-logic QF_BV)
(declare-const bool_0 Bool)
(declare-const bool_1 Bool)
(declare-const bool_2 Bool)
(declare-const bool_3 Bool)
(declare-const bool_4 Bool)
(declare-const bv_0 (_ BitVec 8))
(declare-const bv_1 (_ BitVec 8))
(declare-const bv_2 (_ BitVec 8))
(declare-const bv_3 (_ BitVec 8))
(declare-const bv_4 (_ BitVec 8))
(assert (bvult (bvlshr (bvsmod bv_2 #x0000001b ) (bvxor bv_1 #x000000d1 )) (bvxnor (bvlshr #x0000000a  #x000000b3 ) (bvsmod #x00000089  bv_2))))
(assert (bvsle (bvxnor (bvadd #x00000058  bv_2) (bvashr bv_3 bv_3)) (bvadd (bvnor #x000000a8  #x00000005 ) (bvurem #x00000084  #x000000dc ))))
(assert (bvsgt (bvor (bvsub #x0000004c  #x000000be ) (bvadd #x0000001c  bv_2)) (bvurem (bvsdiv bv_1 bv_4) (bvxor #x00000014  #x000000e6 ))))
(assert (not (not (=> bool_0 false))))
(assert (bvult (bvurem (bvsrem bv_4 #x0000004b ) (bvnor bv_3 bv_0)) (bvmul (bvshl #x0000005c  bv_3) (bvand bv_0 bv_4))))
(check-sat)
(exit)
